TCS_Benchmarks/redos_fix/regexlib1_output_distinct_4552_4551_81_0.txt
[à-üÀ-ÜA-Za-z]+['à-üa-z]+
([à-üÀ-ÜA-Za-z]+['à-üa-z]+)(['à-üÀ-ÜA-Za-z]+)
['à-üÀ-ÜA-Za-z]+